137402
90,64,16,20,56,40,6,69,88,13,98,31,65,52,5,30,29,55,97,106,8,92,23,12,93,89,80,57,83,34,9,26,50,68,99,19,42,81,45,100,51,72,82,33,39,37,70,18,49,7,84,53,63,32,75,35,103,4,61,47,14,74,102,24,76,58,28,27,10,59,66,44,87,1,43,79,91,15,60,96,78,94,3,101,105,38,104,11,41,67,95,54,71,36,85,48,73,2,22,62,25,86,46,77,21,17
